3 5
190 212 229 
0 32 29 51 48 62 66 67 91 62 59 49 34 3
1 1 2 50 44 89 79 46 56 18 43 100 5 2
2 82 72 44 42 21 13 74 76 76 45 81 51 1
3 45 49 102 95 40 50 93 57 18 44 8 2 3
4 83 86 29 36 88 79 74 54 5 15 51 49 2
